data;


param d:= 100;
param r:=5;
param p:=0.100000;
param M:=1000;
param U:=
         1         1        5.012735e-01
         2         1        7.299738e-01
         3         1        1.346248e+00
         4         1       -4.972441e-01
         5         1        1.226380e-01
         6         1       -4.661443e-01
         7         1        1.697247e+00
         8         1       -5.605328e-01
         9         1       -1.493204e+00
        10         1        1.380306e+00
        11         1       -6.653125e-01
        12         1        7.938114e-01
        13         1        1.152239e-02
        14         1       -1.732318e-01
        15         1       -1.163967e+00
        16         1        3.353894e-01
        17         1       -5.948966e-01
        18         1        1.751299e-02
        19         1        5.889999e-01
        20         1       -1.037496e+00
        21         1       -9.512450e-01
        22         1        2.686943e-01
        23         1       -1.718989e+00
        24         1        3.662682e-01
        25         1        2.478517e-02
        26         1       -7.608002e-02
        27         1        7.252356e-02
        28         1        3.629219e-01
        29         1       -1.141862e-01
        30         1        1.679116e-01
        31         1       -1.483346e+00
        32         1        6.770088e-01
        33         1        8.909217e-01
        34         1        1.231282e-01
        35         1       -8.180269e-01
        36         1        1.803221e+00
        37         1       -1.157285e+00
        38         1       -2.084888e-01
        39         1       -2.747695e+00
        40         1       -1.041310e-01
        41         1        1.491489e+00
        42         1        1.444045e+00
        43         1       -2.665860e-01
        44         1       -8.130029e-01
        45         1        3.143658e-01
        46         1       -8.894766e-01
        47         1       -4.415402e-01
        48         1        4.607276e-01
        49         1        1.121672e+00
        50         1       -8.460090e-01
        51         1        2.583645e+00
        52         1       -4.308041e-01
        53         1        2.052461e-01
        54         1       -3.024438e-01
        55         1       -5.590814e-01
        56         1        5.007192e-01
        57         1       -1.094048e+00
        58         1       -6.941682e-01
        59         1        2.413262e-01
        60         1        3.451367e-01
        61         1       -9.652064e-01
        62         1       -2.321275e+00
        63         1       -1.033156e+00
        64         1        4.166640e-02
        65         1        3.134688e-01
        66         1       -6.317094e-01
        67         1        7.249490e-01
        68         1       -2.649306e-01
        69         1        4.861308e-02
        70         1       -9.606394e-01
        71         1       -2.001979e-02
        72         1        1.639431e+00
        73         1        1.316028e+00
        74         1        4.366849e-02
        75         1       -1.125942e-01
        76         1        4.958354e-01
        77         1       -9.611542e-01
        78         1        1.621384e-01
        79         1       -8.579460e-01
        80         1       -1.772017e+00
        81         1        5.468366e-01
        82         1       -6.758263e-01
        83         1       -3.567457e-01
        84         1        9.111768e-01
        85         1        3.382689e-01
        86         1        2.441977e-01
        87         1        1.091787e+00
        88         1        6.548016e-01
        89         1       -1.250749e+00
        90         1        1.841794e-01
        91         1        1.377423e+00
        92         1        7.077926e-01
        93         1       -4.033574e-01
        94         1       -6.167340e-01
        95         1        4.357816e-01
        96         1        5.670778e-01
        97         1       -1.097113e+00
        98         1        3.935840e-01
        99         1        7.617825e-01
       100         1        8.451142e-01
         1         2        5.825958e-01
         2         2        1.298644e+00
         3         2        5.532651e-02
         4         2        2.265849e-01
         5         2       -1.143457e+00
         6         2       -3.666253e-01
         7         2        5.870462e-01
         8         2       -8.572068e-02
         9         2        4.233257e-01
        10         2       -9.900071e-01
        11         2       -2.920487e-01
        12         2        2.031460e+00
        13         2        3.679131e-01
        14         2        2.174950e+00
        15         2       -1.805893e-01
        16         2        3.859218e-01
        17         2        2.026417e+00
        18         2        2.098187e-01
        19         2        1.577939e+00
        20         2        8.652300e-02
        21         2        6.373147e-01
        22         2        3.518910e-01
        23         2       -1.855232e-01
        24         2       -7.045092e-01
        25         2       -9.404371e-02
        26         2       -1.466552e+00
        27         2        7.952192e-01
        28         2       -7.722865e-01
        29         2        1.080582e+00
        30         2        4.892975e-01
        31         2        8.258963e-01
        32         2        1.486873e+00
        33         2        1.107356e+00
        34         2       -1.289035e+00
        35         2        1.377085e+00
        36         2       -1.043275e+00
        37         2       -9.582677e-02
        38         2        4.900850e-01
        39         2        9.761324e-01
        40         2       -9.692694e-01
        41         2       -2.648877e-01
        42         2       -1.033982e+00
        43         2       -6.201902e-01
        44         2       -1.391155e+00
        45         2        1.628867e+00
        46         2       -8.997120e-01
        47         2        1.934291e+00
        48         2        1.671488e+00
        49         2        6.584761e-01
        50         2        1.737930e-01
        51         2       -8.292880e-01
        52         2        1.608005e+00
        53         2        1.971446e-01
        54         2        1.407507e+00
        55         2       -1.389547e+00
        56         2        1.016965e+00
        57         2        3.781908e-01
        58         2       -7.562667e-01
        59         2        2.809262e-01
        60         2       -6.156391e-01
        61         2       -1.856457e+00
        62         2        1.239754e+00
        63         2       -9.954180e-01
        64         2        1.788704e+00
        65         2        1.396372e+00
        66         2       -1.192702e+00
        67         2       -5.192007e-01
        68         2       -3.032271e-01
        69         2        4.715099e-01
        70         2       -1.991476e+00
        71         2        5.907161e-01
        72         2       -7.357960e-01
        73         2       -9.389572e-01
        74         2       -1.161016e+00
        75         2        1.728953e-01
        76         2       -6.274469e-01
        77         2        1.697514e+00
        78         2        7.275426e-01
        79         2        1.149089e+00
        80         2        1.710862e-01
        81         2        9.349691e-01
        82         2       -1.724795e+00
        83         2        8.052801e-01
        84         2       -2.346565e-01
        85         2        1.815046e+00
        86         2       -4.781760e-01
        87         2       -1.584675e+00
        88         2        5.434119e-01
        89         2        3.963328e-01
        90         2       -5.278544e-02
        91         2        8.361232e-01
        92         2        1.139259e+00
        93         2       -1.438448e+00
        94         2        3.117365e-01
        95         2        1.226899e-02
        96         2       -7.846230e-01
        97         2       -2.075071e-01
        98         2        3.031651e-01
        99         2        4.579159e-01
       100         2       -2.397677e-01
         1         3       -2.996797e-01
         2         3        1.153506e+00
         3         3       -6.053774e-01
         4         3        1.887971e+00
         5         3       -8.794106e-01
         6         3       -1.533984e+00
         7         3        6.354231e-01
         8         3       -5.822978e-01
         9         3       -9.128259e-01
        10         3       -1.888893e-01
        11         3       -2.785366e-03
        12         3        1.136059e+00
        13         3       -7.943803e-01
        14         3        4.828507e-01
        15         3        9.177506e-01
        16         3        1.187783e+00
        17         3        1.662454e-01
        18         3       -8.059875e-01
        19         3       -2.427938e-01
        20         3       -1.551329e-01
        21         3        2.108894e+00
        22         3        8.320536e-02
        23         3       -2.789164e-01
        24         3        4.111936e-01
        25         3        4.559349e-01
        26         3       -5.280263e-01
        27         3       -5.359554e-01
        28         3        1.831773e-01
        29         3        3.019435e-01
        30         3       -1.173206e+00
        31         3        7.217135e-01
        32         3        5.339263e-01
        33         3       -3.971034e-01
        34         3        1.781508e-01
        35         3        1.517095e+00
        36         3        8.638629e-01
        37         3       -3.615964e-01
        38         3       -1.737530e+00
        39         3       -9.604072e-01
        40         3       -1.016127e-02
        41         3       -4.732829e-02
        42         3       -1.302294e+00
        43         3        8.689379e-01
        44         3       -1.199276e+00
        45         3       -4.214242e-01
        46         3       -4.510329e-01
        47         3       -3.054616e-01
        48         3       -9.659874e-01
        49         3       -1.399187e+00
        50         3       -6.110656e-01
        51         3       -1.047209e-01
        52         3        2.944020e-01
        53         3       -2.039030e+00
        54         3        1.028304e+00
        55         3       -7.145021e-01
        56         3       -9.542180e-01
        57         3        2.231738e-01
        58         3       -7.637036e-01
        59         3        1.249799e+00
        60         3       -9.515584e-01
        61         3       -5.556494e-01
        62         3        1.845093e+00
        63         3       -5.735413e-01
        64         3       -1.687675e-01
        65         3        1.132511e+00
        66         3       -1.228187e+00
        67         3        1.153407e+00
        68         3        1.006767e+00
        69         3       -1.453795e+00
        70         3        1.703467e+00
        71         3        2.087408e+00
        72         3        7.957506e-01
        73         3        4.153522e-01
        74         3        8.556489e-02
        75         3       -9.543695e-01
        76         3        1.535948e+00
        77         3        2.489709e-01
        78         3        8.898064e-01
        79         3       -1.163671e+00
        80         3       -8.531160e-01
        81         3        6.724920e-01
        82         3       -6.857312e-01
        83         3        1.870563e+00
        84         3        1.020009e+00
        85         3       -1.256790e+00
        86         3       -7.320974e-01
        87         3        1.871966e+00
        88         3        2.825668e+00
        89         3        1.023364e-02
        90         3       -1.200494e+00
        91         3       -1.090774e+00
        92         3       -1.133913e+00
        93         3       -1.021481e+00
        94         3       -1.234001e+00
        95         3        8.936593e-01
        96         3       -6.340154e-01
        97         3       -2.794120e-01
        98         3        1.209430e-02
        99         3        8.940809e-01
       100         3        1.354406e-01
         1         4       -9.806255e-01
         2         4       -2.259899e-01
         3         4        3.481885e-01
         4         4        3.401856e-01
         5         4       -1.725580e-01
         6         4       -8.660218e-01
         7         4       -1.158445e+00
         8         4       -2.274958e-01
         9         4       -6.168877e-01
        10         4       -5.854333e-02
        11         4        5.759670e-01
        12         4       -1.677144e+00
        13         4        7.797961e-01
        14         4       -7.650904e-02
        15         4       -1.013384e+00
        16         4       -3.954932e-01
        17         4        1.009876e+00
        18         4       -2.618392e-01
        19         4       -1.230868e+00
        20         4        9.955879e-01
        21         4        2.462483e-01
        22         4       -1.119782e+00
        23         4        9.149959e-01
        24         4        7.771768e-01
        25         4        4.752816e-01
        26         4       -6.713403e-01
        27         4       -1.429789e-02
        28         4       -3.871375e-02
        29         4       -1.919409e-01
        30         4       -9.727338e-01
        31         4        1.075700e+00
        32         4        1.757748e+00
        33         4       -6.279722e-01
        34         4       -6.844047e-01
        35         4        4.933666e-01
        36         4       -1.414102e-02
        37         4        7.330339e-01
        38         4        6.806039e-01
        39         4       -2.413760e-01
        40         4        9.755519e-01
        41         4        1.199334e-01
        42         4        8.951841e-01
        43         4       -6.634978e-01
        44         4        5.052980e-01
        45         4        8.817577e-01
        46         4        1.306821e+00
        47         4        3.436658e-01
        48         4        3.985121e-01
        49         4        7.826302e-01
        50         4        8.432064e-01
        51         4        1.862912e+00
        52         4        1.398421e+00
        53         4        9.635479e-01
        54         4        3.433105e-01
        55         4       -1.538834e+00
        56         4        2.831785e-02
        57         4        3.124373e-01
        58         4       -4.050731e-01
        59         4       -1.080070e-01
        60         4        2.280437e+00
        61         4        1.810489e-01
        62         4        5.546833e-01
        63         4        5.493433e-01
        64         4        1.478361e+00
        65         4       -1.127605e-01
        66         4       -9.166522e-01
        67         4        1.342682e+00
        68         4       -1.239875e+00
        69         4       -1.499213e+00
        70         4       -4.739195e-01
        71         4        5.094025e-01
        72         4        9.167121e-01
        73         4        8.183997e-01
        74         4        4.181370e-01
        75         4        1.692771e+00
        76         4       -2.880242e-01
        77         4        3.475321e-01
        78         4       -1.465449e+00
        79         4        1.017541e+00
        80         4        1.476492e+00
        81         4       -6.691079e-01
        82         4        8.260228e-01
        83         4       -5.241437e-01
        84         4        6.556229e-01
        85         4       -7.699587e-01
        86         4        1.007812e+00
        87         4        5.132612e-01
        88         4        3.345278e-01
        89         4        3.380507e-01
        90         4       -1.776992e+00
        91         4        6.668373e-01
        92         4       -6.219598e-01
        93         4        5.939581e-01
        94         4       -1.626686e+00
        95         4       -2.491430e-01
        96         4       -9.199866e-01
        97         4        4.518807e-01
        98         4       -8.062103e-02
        99         4        1.490808e+00
       100         4       -7.524799e-01
         1         5        1.177921e+00
         2         5        2.291445e-01
         3         5       -6.343929e-01
         4         5        8.442337e-01
         5         5       -7.850165e-01
         6         5        4.129881e-02
         7         5        1.778944e-01
         8         5        1.423011e-01
         9         5        1.748726e+00
        10         5        1.655813e+00
        11         5        1.045131e+00
        12         5       -7.372036e-01
        13         5       -1.343267e+00
        14         5       -1.752020e-01
        15         5        9.707971e-01
        16         5       -1.325518e+00
        17         5       -1.270038e+00
        18         5        1.173174e-01
        19         5       -1.314148e+00
        20         5       -7.853261e-01
        21         5       -1.105965e+00
        22         5       -1.559548e-01
        23         5        6.601388e-01
        24         5        4.714920e-01
        25         5       -1.640746e-01
        26         5        1.411897e+00
        27         5        1.195849e+00
        28         5        9.624722e-01
        29         5        6.881331e-01
        30         5        8.659557e-01
        31         5        1.565580e+00
        32         5        2.921520e-01
        33         5       -7.443360e-01
        34         5        1.217523e+00
        35         5        6.965848e-01
        36         5       -2.144513e-01
        37         5       -2.536310e-01
        38         5       -1.901371e+00
        39         5        1.380697e-01
        40         5        3.120307e-02
        41         5       -4.360510e-01
        42         5       -1.952966e+00
        43         5       -1.759009e+00
        44         5        2.950476e-01
        45         5       -4.274659e-01
        46         5       -5.334534e-01
        47         5       -1.027383e+00
        48         5        7.202837e-01
        49         5       -1.982456e-01
        50         5       -7.414066e-01
        51         5        7.676898e-02
        52         5        8.127608e-01
        53         5        8.183921e-03
        54         5        4.749057e-01
        55         5       -4.379373e-01
        56         5        7.827910e-01
        57         5       -3.737676e+00
        58         5       -4.861010e-02
        59         5       -1.564868e-01
        60         5       -2.157029e+00
        61         5        8.823825e-01
        62         5       -4.882331e-01
        63         5        9.877925e-01
        64         5        3.712525e-01
        65         5       -2.330522e-01
        66         5       -1.493213e+00
        67         5        7.954475e-01
        68         5       -2.119363e-01
        69         5        1.111112e-01
        70         5       -1.449318e-02
        71         5        1.291752e+00
        72         5        5.629688e-01
        73         5       -1.154622e+00
        74         5       -2.044890e+00
        75         5       -1.132068e+00
        76         5       -4.664997e-01
        77         5        2.334053e+00
        78         5       -3.337854e-01
        79         5        7.445153e-02
        80         5        2.402810e-01
        81         5        1.769471e+00
        82         5        7.533141e-01
        83         5       -6.292905e-01
        84         5        3.791304e-01
        85         5       -1.527321e-01
        86         5        1.285733e-01
        87         5       -1.424537e+00
        88         5        1.626881e+00
        89         5       -2.182900e+00
        90         5       -2.124263e-01
        91         5        9.683852e-01
        92         5        1.194730e+00
        93         5       -6.471819e-01
        94         5       -3.692167e-01
        95         5       -2.520939e-01
        96         5        2.101094e+00
        97         5       -1.032776e+00
        98         5       -2.328900e-01
        99         5       -2.279123e-01
       100         5       -1.866355e+00
;

param theta:=
    1       -2.090078e-01
    2        3.445558e-01
    3        5.517222e-01
    4        8.708073e-01
    5        5.989549e-01
;
param X_true:=
    1       -2.944008e-01
    2        1.014347e+00
    3       -7.286451e-01
    4        2.138946e+00
    5       -1.507820e+00
    6       -1.463140e+00
    7       -5.097696e-01
    8       -3.147798e-01
    9        3.824107e-01
   10        1.645649e-01
   11        1.126511e+00
   12       -6.390746e-01
   13       -2.819030e-01
   14        9.189783e-01
   15        5.260937e-01
   16       -3.489002e-01
   17        1.038063e+00
   18       -4.346558e-01
   19       -1.635456e+00
   20        5.266427e-01
   21        1.249144e+00
   22       -1.062412e+00
   23        1.393572e+00
   24        1.008715e+00
   25        5.477451e-01
   26       -3.481606e-01
   27        6.332003e-01
   28        3.456718e-01
   29        8.124984e-01
   30       -9.601846e-01
   31        2.824435e+00
   32        2.359071e+00
   33       -1.112996e+00
   34       -1.783670e-01
   35        2.319307e+00
   36       -4.182055e-01
   37        3.934368e-01
   38       -1.194666e+00
   39        2.832850e-01
   40        6.000172e-01
   41       -5.457551e-01
   42       -1.794847e+00
   43       -1.309878e+00
   44       -1.944897e-01
   45        8.057250e-01
   46        3.591966e-01
   47        3.293777e-01
   48        6.732371e-01
   49       -1.646861e-01
   50        3.501003e-01
   51        8.065739e-01
   52        2.646821e+00
   53       -3.856435e-01
   54        1.774821e+00
   55       -2.280023e+00
   56        1.221890e-01
   57       -1.470237e+00
   58       -8.353910e-01
   59        4.793787e-01
   60       -9.322353e-02
   61       -3.591482e-02
   62        2.067502e+00
   63        4.606959e-01
   64        1.941071e+00
   65        8.071190e-01
   66       -2.662893e+00
   67        1.862788e+00
   68       -6.974170e-01
   69       -1.799619e+00
   70       -9.030722e-02
   71        2.592162e+00
   72        1.127677e+00
   73       -3.017691e-01
   74       -1.167928e+00
   75        3.941487e-01
   76        4.183168e-02
   77        2.690193e+00
   78       -7.069108e-01
   79        8.064977e-01
   80        1.477357e+00
   81        1.064829e+00
   82        2.903413e-01
   83        6.724671e-01
   84        1.206101e+00
   85       -9.438558e-01
   86        4.105620e-01
   87        1.246340e-02
   88        2.884035e+00
   89       -4.417109e-01
   90       -2.334573e+00
   91        4.887328e-01
   92       -2.370840e-01
   93       -7.718995e-01
   94       -1.953219e+00
   95        8.502346e-02
   96       -3.163088e-01
   97       -2.605932e-01
   98       -7.642846e-02
   99        1.587838e+00
  100       -1.851876e+00
;
param X:=
    1       -2.944008e-01
    2        1.014347e+00
    3       -7.286451e-01
    4        2.138946e+00
    5       -1.507820e+00
    6       -1.463140e+00
    7       -5.097696e-01
    8       -3.147798e-01
    9       -2.912831e-01
   10        1.645649e-01
   11        1.126511e+00
   12       -6.390746e-01
   13       -2.819030e-01
   14        9.189783e-01
   15        5.260937e-01
   16       -3.489002e-01
   17        1.038063e+00
   18       -4.346558e-01
   19       -1.635456e+00
   20        5.266427e-01
   21        1.249144e+00
   22       -1.062412e+00
   23        1.393572e+00
   24        1.008715e+00
   25       -9.476278e-01
   26       -3.481606e-01
   27        6.332003e-01
   28        3.456718e-01
   29        8.124984e-01
   30       -9.601846e-01
   31        2.824435e+00
   32        2.359071e+00
   33       -1.112996e+00
   34        1.723777e-01
   35       -2.806020e-01
   36       -4.182055e-01
   37        3.934368e-01
   38       -1.194666e+00
   39       -1.630191e+00
   40        6.000172e-01
   41       -5.457551e-01
   42       -1.794847e+00
   43       -1.309878e+00
   44       -1.944897e-01
   45        8.057250e-01
   46        3.591966e-01
   47        3.293777e-01
   48        6.732371e-01
   49       -1.646861e-01
   50        3.501003e-01
   51        8.065739e-01
   52        2.646821e+00
   53       -3.856435e-01
   54        1.774821e+00
   55       -2.280023e+00
   56        1.221890e-01
   57       -1.470237e+00
   58       -8.353910e-01
   59        1.233397e+00
   60       -9.322353e-02
   61       -3.591482e-02
   62        2.067502e+00
   63        4.606959e-01
   64        1.941071e+00
   65        8.071190e-01
   66       -2.662893e+00
   67        1.862788e+00
   68       -6.974170e-01
   69       -4.701121e-01
   70       -9.030722e-02
   71        2.592162e+00
   72        1.127677e+00
   73       -3.017691e-01
   74       -1.167928e+00
   75        1.148647e-01
   76        4.183168e-02
   77        2.690193e+00
   78       -7.069108e-01
   79        8.064977e-01
   80        1.477357e+00
   81       -1.054286e-01
   82        2.903413e-01
   83       -1.078998e+00
   84        1.206101e+00
   85       -9.438558e-01
   86        4.105620e-01
   87        1.246340e-02
   88        2.884035e+00
   89       -4.417109e-01
   90       -2.334573e+00
   91        4.887328e-01
   92       -2.370840e-01
   93       -7.718995e-01
   94       -1.953219e+00
   95        8.502346e-02
   96       -3.163088e-01
   97       -2.605932e-01
   98       -7.642846e-02
   99        1.587838e+00
  100       -1.851876e+00
;
param outliervec:=
    1    0
    2    0
    3    0
    4    0
    5    0
    6    0
    7    0
    8    0
    9    1
   10    0
   11    0
   12    0
   13    0
   14    0
   15    0
   16    0
   17    0
   18    0
   19    0
   20    0
   21    0
   22    0
   23    0
   24    0
   25    1
   26    0
   27    0
   28    0
   29    0
   30    0
   31    0
   32    0
   33    0
   34    1
   35    1
   36    0
   37    0
   38    0
   39    1
   40    0
   41    0
   42    0
   43    0
   44    0
   45    0
   46    0
   47    0
   48    0
   49    0
   50    0
   51    0
   52    0
   53    0
   54    0
   55    0
   56    0
   57    0
   58    0
   59    1
   60    0
   61    0
   62    0
   63    0
   64    0
   65    0
   66    0
   67    0
   68    0
   69    1
   70    0
   71    0
   72    0
   73    0
   74    0
   75    1
   76    0
   77    0
   78    0
   79    0
   80    0
   81    1
   82    0
   83    1
   84    0
   85    0
   86    0
   87    0
   88    0
   89    0
   90    0
   91    0
   92    0
   93    0
   94    0
   95    0
   96    0
   97    0
   98    0
   99    0
  100    0
;